\ENCODING=ISO-8859-1
\Problem name: ilog.cplex

Minimize
 obj: x1 + x2 + x3 + x4 + x5 + x6 + x7 + x8 + x9 + x10 + x11 + x12 + x13 + x14
      + x15 + x16
Subject To
 c1:  x1 + x33 + x34 + x35 + x36 + x37 + x38 + x39 + x40 + x41 + x42 + x43
      + x44 + x45 + x46 + x47 + x48 + x49 + x50 + x51 + x52 + x53 + x54 + x55
      + x56 + x57 + x58 + x59 + x60 + x61 + x62 + x63 + x64 + x65 + x66 + x67
      + x68 + x69 + x70 + x71 + x72 + x73 + x74 + x75 + x76 + x77 + x78 + x79
      + x80 + x81 + x82 + x83 + x84 + x85 + x86 + x87 + x88 + x89 + x90 + x91
      + x92 + x93 + x94 + x95 + x96 + x97 + x98 + x99 + x100 + x101 + x102
      + x103 + x104 + x105 + x106 + x107 + x108 + x109 + x110 + x111 + x112
      + x113 + x114 + x115 + x116 + x117 + x118 + x119 + x120 + x121 + x122
      + x123 + x124 + x125 + x126 + x127 + x128 + x129 + x130 + x131 + x132
      + x133 + x134 + x135 + x136 + x137 + x138 + x139 + x140 + x141 + x142
      + x143 + x144 + x145 + x146 + x147 + x148 + x149 + x150 + x151 + x152
      + x153 + x154 + x155 + x156 + x157 + x158 + x159 + x160 + x161 + x162
      + x163 + x164 + x165 + x166 + x167 + x168 + x169 + x170 + x171 + x172
      + x173 + x174 + x175 + x176 + x177 + x178 + x179 + x180 + x181 + x182
      + x183 + x184 + x185 + x186 + x187 + x188 + x189 + x190 + x191 + x192
      + x193 + x194 + x195 + x196 + x197 + x198 + x199 + x200 + x201 + x202
      + x203 + x204 + x205 + x206 + x207 + x208 + x209 + x210 + x211 + x212
      + x213 + x214 + x215 + x216 + x217 + x218 + x219 + x220 + x221 + x222
      + x223 + x224 + x225 + x226 + x227 + x228 + x229 + x230 + x231 + x232
      + x233 + x234 + x235 + x236 + x237 + x238 + x239 + x240 + x241 + x242
      + x243 + x244 + x245 + x246 + x247 + x248 + x249 + x250 + x251 + x252
      + x253 + x254 + x255 + x256 + x257 + x258 + x259 + x260 + x261 + x262
      + x263 + x264 + x265 + x266 + x267 + x268 + x269 + x270 + x271 + x272
      + x273 + x274 + x275 + x276 + x277 + x278 + x279 + x280 + x281 + x282
      + x283 + x284 + x285 + x286 + x287 + x288 + x289 + x290 + x291 + x292
      + x293 + x294 + x295 + x296 + x297 + x298 + x299 + x300 + x301 + x302
      + x303 + x304 + x305 + x306 + x307 + x308 + x309 + x310 + x311 + x312
      + x313 + x314 + x315 + x316 + x317 + x318 + x319 + x320 + x321 + x322
      + x323 + x324 + x325 + x326 + x327 + x328 + x329 + x330 + x331 + x332
      + x333 + x334 + x335 + x336 + x337 + x338 + x339 + x340 + x341 + x342
      + x343 + x344 + x345 + x346 + x347 + x348 + x349 + x350 + x351 + x352
      + x353 + x354 + x355 + x356 + x357 + x358 + x359 + x360 + x361 + x362
      + x363 + x364 + x365 + x366 + x367 + x368 + x369 + x370 + x371 + x372
      + x373 + x374 + x375 + x376 + x377 + x378 + x379 + x380 + x381 + x382
      + x383 + x384 + x385 + x386 + x387 + x388 + x389 + x390 + x391 + x392
      + x393 + x394 + x395 + x396 + x397 + x398 + x399 + x400 + x401 + x402
      + x403 + x404 + x405 + x406 + x407 + x408 + x409 + x410 + x411 + x412
      + x413 + x414 + x415 + x416 + x417 + x418 + x419 + x420 + x421 + x422
      + x423 + x424 + x425 + x426 + x427 + x428 + x429 + x430 + x431 + x432
      + x433 + x434 + x435 + x436 + x437 + x438 + x439 + x440 + x441 + x442
      + x443 + x444 + x445 + x446 + x447 + x448 + x449 + x450 + x451 + x452
      + x453 + x454 + x455 + x456 + x457 + x458 + x459 + x460 + x461 + x462
      + x463 + x464 + x465 + x466 + x467 + x468 + x469 + x470 + x471 + x472
      + x473 + x474 + x475 + x476 + x477 + x478 + x479 + x480 + x481 + x482
      + x483 + x484 + x485 + x486 >= 1
 c3:  x2 + x33 + x45 + x48 + x56 + x57 + x58 + x59 + x63 + x67 + x68 + x69
      + x70 + x73 + x75 + x78 + x81 + x85 + x87 + x90 + x94 + x96 + x97 + x98
      + x99 + x101 + x103 + x107 + x108 + x109 + x111 + x113 + x115 + x116
      + x118 + x119 + x123 + x126 + x127 + x130 + x136 + x149 + x150 + x153
      + x156 + x160 + x163 + x169 + x170 + x172 + x174 + x180 + x183 + x184
      + x186 + x188 + x191 + x192 + x193 + x205 + x209 + x211 + x213 + x215
      + x219 + x223 + x225 + x227 + x228 + x235 + x238 + x239 + x240 + x242
      + x243 + x250 + x251 + x252 + x253 + x255 + x256 + x261 + x264 + x265
      + x267 + x268 + x269 + x271 + x278 + x280 + x282 + x285 + x288 + x290
      + x291 + x292 + x293 + x301 + x302 + x305 + x308 + x309 + x311 + x315
      + x317 + x318 + x321 + x322 + x323 + x324 + x329 + x332 + x333 + x338
      + x339 + x342 + x344 + x345 + x347 + x353 + x354 + x355 + x360 + x363
      + x364 + x365 + x367 + x373 + x376 + x380 + x382 + x383 + x386 + x387
      + x389 + x391 + x393 + x400 + x401 + x402 + x403 + x404 + x406 + x408
      + x410 + x415 + x416 + x417 + x421 + x422 + x423 + x425 + x427 + x429
      + x433 + x434 + x437 + x439 + x443 + x446 + x447 + x448 + x449 + x450
      + x451 + x452 + x455 + x459 + x462 + x464 + x465 + x467 + x468 + x472
      + x478 + x486 + x941 + x942 + x943 + x944 + x945 + x946 + x947 >= 1
 c5:  x3 + x33 + x35 + x44 + x45 + x48 + x57 + x59 + x62 + x64 + x68 + x73
      + x74 + x78 + x90 + x110 + x114 + x117 + x130 + x134 + x148 + x154 + x160
      + x169 + x177 + x178 + x198 + x207 + x209 + x215 + x216 + x219 + x224
      + x235 + x242 + x244 + x245 + x247 + x251 + x258 + x260 + x274 + x294
      + x323 + x329 + x334 + x340 + x358 + x360 + x363 + x375 + x379 + x405
      + x425 + x432 + x438 + x446 + x942 + x948 + x949 + x950 + x951 + x952
      + x953 + x954 + x955 + x956 >= 1
 c7:  x4 + x34 + x42 + x47 + x49 + x50 + x52 + x54 + x55 + x65 + x71 + x72
      + x76 + x79 + x80 + x85 + x91 + x93 + x95 + x98 + x101 + x105 + x110
      + x121 + x122 + x125 + x127 + x135 + x139 + x143 + x144 + x147 + x151
      + x155 + x161 + x165 + x167 + x170 + x175 + x176 + x185 + x188 + x192
      + x194 + x199 + x201 + x203 + x204 + x214 + x217 + x220 + x225 + x237
      + x245 + x248 + x250 + x255 + x257 + x259 + x261 + x264 + x266 + x270
      + x272 + x276 + x279 + x281 + x289 + x295 + x306 + x310 + x312 + x313
      + x314 + x316 + x319 + x327 + x333 + x342 + x343 + x344 + x349 + x351
      + x357 + x374 + x384 + x388 + x389 + x395 + x396 + x404 + x410 + x413
      + x414 + x420 + x426 + x430 + x442 + x447 + x451 + x452 + x941 + x951
      + x953 + x966 + x967 + x968 + x969 + x970 + x971 + x972 + x973 + x974
      + x975 >= 1
 c9:  x5 + x34 + x41 + x42 + x44 + x46 + x47 + x49 + x50 + x52 + x53 + x55
      + x60 + x63 + x65 + x71 + x72 + x75 + x79 + x80 + x84 + x85 + x86 + x88
      + x89 + x91 + x92 + x93 + x94 + x95 + x98 + x100 + x101 + x102 + x103
      + x105 + x110 + x112 + x113 + x116 + x121 + x124 + x125 + x131 + x135
      + x136 + x139 + x140 + x141 + x142 + x143 + x144 + x147 + x150 + x151
      + x153 + x157 + x159 + x164 + x165 + x167 + x168 + x169 + x173 + x174
      + x176 + x178 + x179 + x183 + x186 + x187 + x188 + x191 + x192 + x194
      + x195 + x199 + x200 + x201 + x202 + x203 + x204 + x206 + x208 + x210
      + x217 + x218 + x220 + x221 + x223 + x225 + x226 + x227 + x228 + x232
      + x237 + x238 + x240 + x241 + x243 + x244 + x245 + x246 + x248 + x252
      + x253 + x254 + x255 + x256 + x257 + x261 + x264 + x266 + x269 + x272
      + x273 + x277 + x279 + x283 + x286 + x287 + x289 + x290 + x292 + x293
      + x294 + x295 + x296 + x299 + x301 + x304 + x305 + x307 + x308 + x310
      + x311 + x312 + x314 + x316 + x318 + x319 + x320 + x321 + x327 + x333
      + x341 + x342 + x343 + x344 + x345 + x346 + x348 + x349 + x351 + x352
      + x353 + x355 + x356 + x357 + x359 + x361 + x362 + x365 + x368 + x369
      + x373 + x374 + x380 + x388 + x389 + x391 + x395 + x396 + x399 + x400
      + x403 + x404 + x405 + x406 + x409 + x412 + x413 + x414 + x415 + x416
      + x417 + x418 + x419 + x420 + x426 + x428 + x430 + x438 + x439 + x440
      + x442 + x443 + x447 + x451 + x456 + x463 + x941 + x949 + x953 + x967
      + x969 + x974 + x975 + x986 + x987 + x988 >= 1
 c11: x6 + x37 + x39 + x40 + x43 + x44 + x46 + x52 + x54 + x56 + x58 + x62
      + x64 + x66 + x67 + x69 + x70 + x71 + x74 + x76 + x77 + x78 + x79 + x82
      + x87 + x88 + x91 + x93 + x97 + x102 + x103 + x107 + x110 + x111 + x121
      + x126 + x128 + x133 + x134 + x135 + x137 + x138 + x143 + x149 + x151
      + x152 + x156 + x158 + x166 + x175 + x178 + x185 + x187 + x190 + x194
      + x197 + x199 + x202 + x207 + x216 + x217 + x218 + x220 + x224 + x225
      + x226 + x238 + x248 + x254 + x257 + x260 + x268 + x273 + x274 + x279
      + x287 + x296 + x297 + x300 + x316 + x318 + x321 + x329 + x331 + x334
      + x336 + x342 + x347 + x348 + x349 + x352 + x355 + x358 + x362 + x366
      + x367 + x368 + x372 + x376 + x377 + x379 + x380 + x381 + x382 + x387
      + x388 + x392 + x393 + x396 + x397 + x398 + x401 + x412 + x414 + x421
      + x424 + x426 + x427 + x428 + x429 + x432 + x435 + x437 + x441 + x442
      + x444 + x455 + x459 + x462 + x469 + x470 + x473 + x474 + x485 + x951
      + x966 + x992 >= 1
 c13: x7 + x36 + x50 + x60 + x71 + x86 + x92 + x102 + x106 + x114 + x116 + x117
      + x123 + x129 + x131 + x137 + x141 + x144 + x145 + x154 + x168 + x179
      + x181 + x182 + x202 + x204 + x207 + x221 + x223 + x226 + x229 + x258
      + x262 + x280 + x298 + x312 + x317 + x324 + x353 + x364 + x370 + x378
      + x398 + x399 + x407 + x411 + x436 + x448 + x450 + x452 + x454 + x948
      + x951 + x971 + x972 + x986 + x994 + x995 + x996 + x997 + x998 >= 1
 c15: x8 + x51 + x56 + x72 + x83 + x86 + x92 + x104 + x113 + x115 + x146 + x172
      + x191 + x195 + x200 + x204 + x205 + x208 + x210 + x211 + x213 + x218
      + x227 + x231 + x247 + x249 + x259 + x271 + x277 + x295 + x301 + x303
      + x305 + x308 + x311 + x313 + x314 + x319 + x322 + x341 + x366 + x367
      + x369 + x385 + x431 + x440 + x449 + x457 + x942 + x968 + x969 + x973
      + x1004 + x1005 + x1006 >= 1
 c17: x9 + x38 + x61 + x65 + x75 + x81 + x99 + x118 + x134 + x136 + x143 + x159
      + x162 + x189 + x192 + x196 + x233 + x246 + x249 + x268 + x269 + x276
      + x283 + x284 + x288 + x292 + x298 + x303 + x304 + x310 + x331 + x339
      + x346 + x350 + x352 + x371 + x376 + x382 + x383 + x407 + x409 + x418
      + x421 + x972 + x973 + x994 + x1010 >= 1
 c19: x10 + x34 + x35 + x43 + x45 + x47 + x52 + x80 + x82 + x83 + x84 + x97
      + x111 + x115 + x118 + x119 + x137 + x139 + x141 + x148 + x152 + x171
      + x187 + x241 + x246 + x272 + x274 + x278 + x283 + x284 + x286 + x290
      + x293 + x304 + x315 + x317 + x325 + x337 + x347 + x356 + x366 + x373
      + x416 + x423 + x427 + x444 + x453 + x454 + x464 + x469 + x476 + x477
      + x480 + x945 + x948 + x949 + x992 + x994 + x995 + x1012 >= 1
 c21: x11 + x37 + x47 + x49 + x50 + x52 + x54 + x65 + x67 + x72 + x73 + x74
      + x76 + x79 + x80 + x84 + x85 + x88 + x91 + x93 + x95 + x98 + x100 + x101
      + x103 + x104 + x121 + x122 + x124 + x127 + x133 + x139 + x145 + x146
      + x147 + x150 + x162 + x164 + x165 + x166 + x167 + x170 + x174 + x175
      + x176 + x184 + x185 + x186 + x187 + x188 + x189 + x190 + x194 + x198
      + x199 + x203 + x206 + x208 + x210 + x213 + x214 + x217 + x219 + x220
      + x225 + x229 + x234 + x236 + x237 + x239 + x244 + x245 + x249 + x254
      + x255 + x257 + x259 + x261 + x264 + x266 + x271 + x272 + x275 + x277
      + x278 + x279 + x280 + x289 + x294 + x295 + x297 + x298 + x299 + x300
      + x302 + x303 + x306 + x310 + x312 + x314 + x315 + x319 + x326 + x327
      + x328 + x332 + x333 + x334 + x335 + x337 + x338 + x339 + x340 + x341
      + x343 + x347 + x348 + x349 + x350 + x354 + x362 + x364 + x379 + x384
      + x385 + x386 + x388 + x389 + x390 + x391 + x392 + x395 + x396 + x398
      + x402 + x410 + x412 + x413 + x414 + x417 + x420 + x422 + x424 + x431
      + x434 + x437 + x445 + x453 + x460 + x468 + x481 + x483 + x941 + x946
      + x966 + x968 + x969 >= 1
 c23: x12 + x49 + x53 + x67 + x70 + x83 + x87 + x94 + x109 + x111 + x112 + x120
      + x123 + x132 + x142 + x144 + x153 + x154 + x156 + x158 + x159 + x163
      + x172 + x173 + x179 + x183 + x193 + x195 + x205 + x214 + x221 + x222
      + x228 + x256 + x270 + x273 + x281 + x285 + x291 + x296 + x299 + x306
      + x309 + x325 + x326 + x331 + x343 + x344 + x356 + x357 + x370 + x374
      + x375 + x377 + x393 + x397 + x411 + x436 + x453 + x456 + x458 + x471
      + x479 + x992 + x995 + x1014 + x1015 >= 1
 c25: x13 + x51 + x61 + x69 + x95 + x96 + x107 + x109 + x120 + x128 + x138
      + x155 + x158 + x161 + x163 + x164 + x167 + x171 + x180 + x181 + x185
      + x196 + x203 + x206 + x212 + x232 + x233 + x234 + x236 + x239 + x262
      + x270 + x276 + x297 + x300 + x302 + x330 + x336 + x359 + x361 + x371
      + x378 + x384 + x390 + x394 + x408 + x419 + x441 + x461 + x943 + x952
      + x966 + x971 + x996 + x1004 + x1014 + x1016 + x1017 >= 1
 c27: x14 + x34 + x39 + x77 + x100 + x105 + x112 + x125 + x126 + x128 + x129
      + x133 + x146 + x147 + x171 + x180 + x184 + x186 + x198 + x211 + x215
      + x216 + x230 + x234 + x236 + x237 + x241 + x243 + x253 + x263 + x275
      + x285 + x288 + x289 + x315 + x322 + x324 + x330 + x335 + x365 + x394
      + x397 + x400 + x401 + x403 + x404 + x406 + x420 + x422 + x444 + x455
      + x460 + x465 + x466 + x467 + x473 + x474 + x475 + x482 + x945 + x947
      + x1014 >= 1
 c29: x15 + x36 + x37 + x38 + x39 + x40 + x41 + x42 + x43 + x55 + x58 + x66
      + x77 + x82 + x89 + x106 + x108 + x119 + x132 + x140 + x149 + x152 + x155
      + x157 + x161 + x166 + x175 + x182 + x190 + x197 + x212 + x222 + x230
      + x231 + x250 + x263 + x265 + x267 + x281 + x282 + x307 + x313 + x320
      + x328 + x351 + x372 + x381 + x433 + x435 + x445 + x944 + x950 + x967
      + x970 + x1012 + x1016 + x1020 >= 1
 c31: x16 + x35 + x40 + x57 + x60 + x62 + x66 + x68 + x70 + x80 + x81 + x87
      + x90 + x96 + x100 + x105 + x108 + x120 + x122 + x126 + x130 + x131
      + x135 + x138 + x142 + x148 + x150 + x156 + x160 + x165 + x168 + x177
      + x189 + x197 + x201 + x217 + x240 + x244 + x247 + x251 + x266 + x286
      + x291 + x327 + x337 + x340 + x345 + x346 + x357 + x360 + x368 + x377
      + x387 + x395 + x413 + x430 + x446 + x466 + x470 + x472 + x475 + x476
      + x484 + x949 + x953 + x955 + x970 + x1020 >= 1
 c33: x33 + x34 + x35 + x36 + x37 + x38 + x39 + x40 + x41 + x42 + x43 + x44
      + x45 + x46 + x47 + x48 + x49 + x50 + x51 + x52 + x53 + x54 + x55 + x56
      + x57 + x58 + x59 + x60 + x61 + x62 + x63 + x64 + x65 + x66 + x67 + x68
      + x69 + x70 + x71 + x72 + x73 + x74 + x75 + x76 + x77 + x78 + x79 + x80
      + x81 + x82 + x83 + x84 + x85 + x86 + x87 + x88 + x89 + x90 + x91 + x92
      + x93 + x94 + x95 + x96 + x97 + x98 + x99 + x100 + x101 + x102 + x103
      + x104 + x105 + x106 + x107 + x108 + x109 + x110 + x111 + x112 + x113
      + x114 + x115 + x116 + x117 + x118 + x119 + x120 + x121 + x122 + x123
      + x124 + x125 + x126 + x127 + x128 + x129 + x130 + x131 + x132 + x133
      + x134 + x135 + x136 + x137 + x138 + x139 + x140 + x141 + x142 + x143
      + x144 + x145 + x146 + x147 + x148 + x149 + x150 + x151 + x152 + x153
      + x154 + x155 + x156 + x157 + x158 + x159 + x160 + x161 + x162 + x163
      + x164 + x165 + x166 + x167 + x168 + x169 + x170 + x171 + x172 + x173
      + x174 + x175 + x176 + x177 + x178 + x179 + x180 + x181 + x182 + x183
      + x184 + x185 + x186 + x187 + x188 + x189 + x190 + x191 + x192 + x193
      + x194 + x195 + x196 + x197 + x198 + x199 + x200 + x201 + x202 + x203
      + x204 + x205 + x206 + x207 + x208 + x209 + x210 + x211 + x212 + x213
      + x214 + x215 + x216 + x217 + x218 + x219 + x220 + x221 + x222 + x223
      + x224 + x225 + x226 + x227 + x941 + x942 + x948 + x949 + x950 + x951
      + x966 + x967 + x968 + x994 + x995 + x1014 + x1016 <= 1
 c35: x228 + x229 + x230 + x231 + x232 + x233 + x234 + x235 + x236 + x237
      + x238 + x239 + x240 + x241 + x242 + x243 + x244 + x245 + x246 + x247
      + x248 + x249 + x250 + x251 + x252 + x253 + x254 + x255 + x256 + x257
      + x258 + x259 + x260 + x261 + x262 + x263 + x264 + x265 + x266 + x267
      + x268 + x269 + x270 + x271 + x272 + x273 + x274 + x275 + x276 + x277
      + x278 + x279 + x280 + x281 + x282 + x283 + x284 + x285 + x286 + x287
      + x288 + x289 + x290 + x291 + x292 + x293 + x294 + x295 + x296 + x297
      + x298 + x299 + x300 + x301 + x302 + x303 + x304 + x305 + x306 + x307
      + x308 + x309 + x310 + x311 + x312 + x313 + x314 + x315 + x316 + x317
      + x318 + x319 + x320 + x321 + x322 + x323 + x324 + x325 + x326 + x327
      + x328 + x329 + x330 + x331 + x332 + x333 + x334 + x335 + x336 + x337
      + x338 + x339 + x340 + x341 + x342 + x343 + x344 + x345 + x346 + x347
      + x348 + x349 + x350 + x351 + x352 + x353 + x354 + x355 + x356 + x357
      + x952 + x969 + x970 + x996 <= 1
 c37: x358 + x359 + x360 + x361 + x362 + x363 + x364 + x365 + x366 + x367
      + x368 + x369 + x370 + x371 + x372 + x373 + x374 + x375 + x376 + x377
      + x378 + x379 + x380 + x381 + x382 + x383 + x384 + x385 + x386 + x387
      + x388 + x389 + x390 + x391 + x392 + x393 + x394 + x395 + x396 + x397
      + x398 + x399 + x400 + x401 + x402 + x403 + x404 + x405 + x406 + x407
      + x408 + x409 + x410 + x411 + x412 + x413 + x414 + x415 + x416 + x417
      + x418 + x419 + x420 + x421 + x422 + x423 + x943 + x944 + x945 + x953
      + x971 + x972 + x992 + x1004 + x1020 <= 1
 c39: x424 + x425 + x426 + x427 + x428 + x429 + x430 + x431 + x432 + x433
      + x434 + x435 + x436 + x437 + x438 + x439 + x440 + x441 + x442 + x443
      + x444 + x445 + x446 + x447 + x448 + x449 + x450 + x451 + x452 + x453
      + x454 + x455 + x456 + x973 + x986 + x1012 <= 1
 c41: x457 + x458 + x459 + x460 + x461 + x462 + x463 + x464 + x465 + x466
      + x467 + x468 + x469 + x470 + x471 + x472 + x473 + x474 + x475 + x476
      + x946 + x947 + x954 + x974 + x987 + x997 + x1005 + x1010 + x1017 <= 1
 c43: x477 + x478 + x479 + x480 + x481 + x482 + x483 + x484 + x485 + x486
      + x955 + x956 + x975 + x988 + x998 + x1006 + x1015 <= 1
End
